49
2 18 107 
2 68 95 
2 44 25 
4 34 7 20 103 
2 104 42 
2 115 1 
2 75 27 
3 96 91 61 
2 80 81 
2 54 112 
2 69 111 
2 6 93 
2 90 98 
2 17 38 
2 21 55 
2 78 116 
3 89 36 117 
2 72 67 
2 92 29 
2 83 40 
2 16 57 
2 84 3 
2 113 43 
3 52 87 85 
2 23 63 
2 79 2 
2 5 4 
2 14 74 
2 110 105 
3 28 49 119 
3 12 65 47 
2 62 19 
3 86 118 114 
2 82 26 
3 88 106 76 
2 56 70 
3 31 10 11 
2 97 77 
2 71 24 
2 102 32 
3 9 100 15 
2 53 45 
2 101 94 
4 41 66 120 64 
2 30 108 
4 48 73 22 33 
4 99 60 8 51 
4 46 50 59 109 
5 37 39 35 58 13 
